63
2
0 2 3 4 6 7 9 10 12 13 14 16 17 19 21 22 23 24 25 26 27 28 29 31 32 33 34 35 37 38 39 40 42 43 47 48 50 51 52 53 54 55 56 57 58 60 61 62
1 5 6 7 8 10 11 12 13 15 17 18 20 23 25 28 29 30 31 32 33 36 39 41 42 44 45 46 47 49 52 56 57 58 59
